feasible solution found by trivial heuristic after 0.5 seconds, objective value 0.000000e+00
presolving:
(round 1, fast)       500 del vars, 184685 del conss, 0 add conss, 0 chg bounds, 0 chg sides, 0 chg coeffs, 0 upgd conss, 0 impls, 0 clqs
   (1.2s) running MILP presolver
   (1.2s) MILP presolver found nothing
(round 2, exhaustive) 500 del vars, 184685 del conss, 0 add conss, 0 chg bounds, 0 chg sides, 0 chg coeffs, 500 upgd conss, 0 impls, 0 clqs
   (1.4s) probing: 51/1500 (3.4%) - 0 fixings, 0 aggregations, 0 implications, 0 bound changes
   (1.4s) probing aborted: 50/50 successive totally useless probings
   (1.7s) symmetry computation started: requiring (bin +, int -, cont +), (fixed: bin -, int +, cont -)
   (1.7s) no symmetry present
presolving (3 rounds: 3 fast, 2 medium, 2 exhaustive):
 500 deleted vars, 184685 deleted constraints, 0 added constraints, 0 tightened bounds, 0 added holes, 0 changed sides, 0 changed coefficients
 0 implications, 0 cliques
presolved problem has 1500 variables (1500 bin, 0 int, 0 impl, 0 cont) and 500 constraints
    500 constraints of type <knapsack>
transformed objective value is always integral (scale: 1)
Presolving Time: 1.33
transformed 1/2 original solutions to the transformed problem space

 time | node  | left  |LP iter|LP it/n|mem/heur|mdpt |vars |cons |rows |cuts |sepa|confs|strbr|  dualbound   | primalbound  |  gap   | compl. 
p 1.8s|     1 |     0 |     0 |     - |   locks|   0 |1500 | 500 | 500 |   0 |  0 |   0 |   0 | 1.500000e+03 | 1.590000e+02 | 843.40%| unknown
i 1.8s|     1 |     0 |     0 |     - |  oneopt|   0 |1500 | 500 | 500 |   0 |  0 |   0 |   0 | 1.500000e+03 | 1.600000e+02 | 837.50%| unknown
  2.5s|     1 |     0 |  4986 |     - |   311M |   0 |1500 | 500 | 500 |   0 |  0 |   0 |   0 | 1.702121e+02 | 1.600000e+02 |   6.38%| unknown
o 2.7s|     1 |     0 |  6006 |     - |feaspump|   0 |1500 | 500 | 500 |   0 |  2 |   0 |   0 | 1.702121e+02 | 1.620000e+02 |   5.07%| unknown
L 3.0s|     1 |     0 |  6006 |     - |    rens|   0 |1500 | 500 | 500 |   0 |  2 |   0 |   0 | 1.702121e+02 | 1.680000e+02 |   1.32%| unknown
  3.1s|     1 |     0 |  6006 |     - |   312M |   0 |1500 | 500 | 500 |   0 |  2 |   0 |   0 | 1.702121e+02 | 1.680000e+02 |   1.32%| unknown
  3.1s|     1 |     0 |  6006 |     - |   312M |   0 |1500 | 500 | 500 |   0 |  2 |   0 |   0 | 1.702121e+02 | 1.680000e+02 |   1.32%| unknown
(run 1, node 1) restarting after 1023 global fixings of integer variables

presolving:
(round 1, fast)       1023 del vars, 0 del conss, 0 add conss, 0 chg bounds, 0 chg sides, 0 chg coeffs, 0 upgd conss, 0 impls, 0 clqs
   (3.2s) running MILP presolver
   (3.2s) MILP presolver found nothing
presolving (2 rounds: 2 fast, 1 medium, 1 exhaustive):
 1023 deleted vars, 0 deleted constraints, 0 added constraints, 0 tightened bounds, 0 added holes, 0 changed sides, 0 changed coefficients
 0 implications, 0 cliques
presolved problem has 477 variables (477 bin, 0 int, 0 impl, 0 cont) and 500 constraints
    500 constraints of type <knapsack>
transformed objective value is always integral (scale: 1)
Presolving Time: 1.39
transformed 7/8 original solutions to the transformed problem space

 time | node  | left  |LP iter|LP it/n|mem/heur|mdpt |vars |cons |rows |cuts |sepa|confs|strbr|  dualbound   | primalbound  |  gap   | compl. 
  3.4s|     1 |     0 |  9079 |     - |   313M |   0 | 477 | 500 | 500 |   0 |  0 |   0 |   0 | 1.702121e+02 | 1.680000e+02 |   1.32%| unknown
  3.5s|     1 |     0 |  9118 |     - |   314M |   0 | 477 | 500 | 501 |   1 |  1 |   0 |   0 | 1.701603e+02 | 1.680000e+02 |   1.29%| unknown
  3.5s|     1 |     0 |  9118 |     - |   314M |   0 | 477 | 500 | 501 |   1 |  1 |   0 |   0 | 1.701603e+02 | 1.680000e+02 |   1.29%| unknown
  3.6s|     1 |     0 |  9144 |     - |   316M |   0 | 477 | 500 | 502 |   2 |  2 |   0 |   0 | 1.701440e+02 | 1.680000e+02 |   1.28%| unknown
  3.6s|     1 |     0 |  9144 |     - |   316M |   0 | 477 | 500 | 501 |   2 |  2 |   0 |   0 | 1.701440e+02 | 1.680000e+02 |   1.28%| unknown
  3.6s|     1 |     0 |  9172 |     - |   318M |   0 | 477 | 500 | 502 |   3 |  3 |   0 |   0 | 1.701151e+02 | 1.680000e+02 |   1.26%| unknown
  3.6s|     1 |     0 |  9172 |     - |   318M |   0 | 477 | 500 | 502 |   3 |  3 |   0 |   0 | 1.701151e+02 | 1.680000e+02 |   1.26%| unknown
  3.7s|     1 |     0 |  9203 |     - |   320M |   0 | 477 | 500 | 503 |   4 |  4 |   0 |   0 | 1.701078e+02 | 1.680000e+02 |   1.25%| unknown
  3.8s|     1 |     0 |  9234 |     - |   322M |   0 | 477 | 500 | 504 |   5 |  5 |   0 |   0 | 1.701056e+02 | 1.680000e+02 |   1.25%| unknown
  3.9s|     1 |     0 |  9273 |     - |   325M |   0 | 477 | 500 | 505 |   6 |  6 |   0 |   0 | 1.701020e+02 | 1.680000e+02 |   1.25%| unknown
  3.9s|     1 |     0 |  9273 |     - |   325M |   0 | 477 | 500 | 505 |   6 |  6 |   0 |   0 | 1.701020e+02 | 1.680000e+02 |   1.25%| unknown
  4.0s|     1 |     0 |  9284 |     - |   327M |   0 | 477 | 500 | 506 |   7 |  7 |   0 |   0 | 1.701014e+02 | 1.680000e+02 |   1.25%| unknown
  4.1s|     1 |     0 |  9307 |     - |   329M |   0 | 477 | 500 | 507 |   8 |  8 |   0 |   0 | 1.700993e+02 | 1.680000e+02 |   1.25%| unknown
  4.2s|     1 |     0 |  9348 |     - |   331M |   0 | 477 | 500 | 508 |   9 |  9 |   0 |   0 | 1.700965e+02 | 1.680000e+02 |   1.25%| unknown
  4.2s|     1 |     0 |  9348 |     - |   331M |   0 | 477 | 500 | 508 |   9 |  9 |   0 |   0 | 1.700965e+02 | 1.680000e+02 |   1.25%| unknown
 time | node  | left  |LP iter|LP it/n|mem/heur|mdpt |vars |cons |rows |cuts |sepa|confs|strbr|  dualbound   | primalbound  |  gap   | compl. 
  4.3s|     1 |     0 |  9385 |     - |   335M |   0 | 477 | 500 | 509 |  10 | 10 |   0 |   0 | 1.700931e+02 | 1.680000e+02 |   1.25%| unknown
  4.3s|     1 |     0 |  9398 |     - |   335M |   0 | 477 | 500 | 510 |  11 | 11 |   0 |   0 | 1.700928e+02 | 1.680000e+02 |   1.25%| unknown
  4.4s|     1 |     0 |  9403 |     - |   335M |   0 | 477 | 500 | 511 |  12 | 12 |   0 |   0 | 1.700926e+02 | 1.680000e+02 |   1.25%| unknown
  4.4s|     1 |     0 |  9422 |     - |   335M |   0 | 477 | 500 | 512 |  13 | 13 |   0 |   0 | 1.700920e+02 | 1.680000e+02 |   1.25%| unknown
  5.0s|     1 |     2 |  9422 |     - |   337M |   0 | 477 | 499 | 512 |  13 | 13 |   0 |  22 | 1.700581e+02 | 1.680000e+02 |   1.23%| unknown
(run 2, node 1) restarting after 12 global fixings of integer variables

(restart) converted 13 cuts from the global cut pool into linear constraints

presolving:
(round 1, fast)       12 del vars, 0 del conss, 0 add conss, 0 chg bounds, 0 chg sides, 0 chg coeffs, 0 upgd conss, 0 impls, 0 clqs
presolving (2 rounds: 2 fast, 1 medium, 1 exhaustive):
 12 deleted vars, 0 deleted constraints, 0 added constraints, 0 tightened bounds, 0 added holes, 0 changed sides, 0 changed coefficients
 0 implications, 0 cliques
presolved problem has 465 variables (465 bin, 0 int, 0 impl, 0 cont) and 512 constraints
    499 constraints of type <knapsack>
     13 constraints of type <linear>
transformed objective value is always integral (scale: 1)
Presolving Time: 1.42
transformed 66/67 original solutions to the transformed problem space

 time | node  | left  |LP iter|LP it/n|mem/heur|mdpt |vars |cons |rows |cuts |sepa|confs|strbr|  dualbound   | primalbound  |  gap   | compl. 
  5.3s|     1 |     0 | 12559 |     - |   327M |   0 | 465 | 512 | 512 |   0 |  0 |   0 |  22 | 1.700581e+02 | 1.680000e+02 |   1.23%| unknown
  5.5s|     1 |     0 | 12579 |     - |   327M |   0 | 465 | 512 | 513 |   1 |  1 |   0 |  22 | 1.700581e+02 | 1.680000e+02 |   1.23%| unknown
  5.6s|     1 |     0 | 12606 |     - |   327M |   0 | 465 | 512 | 514 |   2 |  2 |   0 |  22 | 1.700581e+02 | 1.680000e+02 |   1.23%| unknown
  5.7s|     1 |     0 | 12632 |     - |   327M |   0 | 465 | 512 | 515 |   3 |  3 |   0 |  22 | 1.700581e+02 | 1.680000e+02 |   1.23%| unknown
  5.9s|     1 |     0 | 12667 |     - |   329M |   0 | 465 | 512 | 516 |   4 |  4 |   0 |  22 | 1.700581e+02 | 1.680000e+02 |   1.23%| unknown
  6.0s|     1 |     0 | 12683 |     - |   331M |   0 | 465 | 512 | 517 |   5 |  5 |   0 |  22 | 1.700581e+02 | 1.680000e+02 |   1.23%| unknown
  6.1s|     1 |     0 | 12698 |     - |   334M |   0 | 465 | 512 | 518 |   6 |  6 |   0 |  22 | 1.700581e+02 | 1.680000e+02 |   1.23%| unknown
  6.3s|     1 |     0 | 12727 |     - |   336M |   0 | 465 | 512 | 519 |   7 |  7 |   0 |  22 | 1.700581e+02 | 1.680000e+02 |   1.23%| unknown
  6.4s|     1 |     0 | 12746 |     - |   338M |   0 | 465 | 512 | 520 |   8 |  8 |   0 |  22 | 1.700581e+02 | 1.680000e+02 |   1.23%| unknown
  6.6s|     1 |     0 | 12786 |     - |   340M |   0 | 465 | 512 | 521 |   9 |  9 |   0 |  22 | 1.700581e+02 | 1.680000e+02 |   1.23%| unknown
  6.7s|     1 |     0 | 12835 |     - |   342M |   0 | 465 | 512 | 522 |  10 | 10 |   0 |  22 | 1.700581e+02 | 1.680000e+02 |   1.23%| unknown
  6.8s|     1 |     0 | 12848 |     - |   342M |   0 | 465 | 512 | 521 |  11 | 11 |   0 |  22 | 1.700581e+02 | 1.680000e+02 |   1.23%| unknown
  7.5s|     1 |     2 | 12848 |     - |   342M |   0 | 465 | 512 | 521 |  11 | 11 |   0 |  41 | 1.700581e+02 | 1.680000e+02 |   1.23%| unknown
 15.9s|   100 |    21 | 21072 |  91.5 |   355M |  14 | 465 | 870 | 514 |  32 |  2 | 358 | 983 | 1.698588e+02 | 1.680000e+02 |   1.11%|  20.32%
 17.9s|   200 |    41 | 26164 |  71.3 |   363M |  22 | 465 | 950 | 513 |  48 |  3 | 438 |1088 | 1.697932e+02 | 1.680000e+02 |   1.07%|  25.82%
 time | node  | left  |LP iter|LP it/n|mem/heur|mdpt |vars |cons |rows |cuts |sepa|confs|strbr|  dualbound   | primalbound  |  gap   | compl. 
 19.3s|   300 |    53 | 30312 |  61.4 |   368M |  30 | 465 |1005 | 513 |  56 |  0 | 493 |1171 | 1.697801e+02 | 1.680000e+02 |   1.06%|  26.84%
 20.6s|   400 |    67 | 34105 |  55.6 |   374M |  30 | 465 |1067 | 514 |  66 |  3 | 555 |1245 | 1.697448e+02 | 1.680000e+02 |   1.04%|  27.49%
 21.8s|   500 |    81 | 37874 |  52.0 |   374M |  30 | 465 |1103 | 513 |  75 |  0 | 591 |1302 | 1.697448e+02 | 1.680000e+02 |   1.04%|  28.01%
 22.9s|   600 |    97 | 41650 |  49.6 |   374M |  30 | 465 |1137 | 514 |  86 |  0 | 625 |1354 | 1.697275e+02 | 1.680000e+02 |   1.03%|  30.76%
 24.7s|   700 |   111 | 45921 |  48.6 |   374M |  30 | 465 |1158 | 514 | 111 |  0 | 646 |1388 | 1.696967e+02 | 1.680000e+02 |   1.01%|  32.30%
 26.5s|   800 |   133 | 52328 |  50.6 |   374M |  30 | 465 |1190 | 513 | 137 |  1 | 678 |1426 | 1.696807e+02 | 1.680000e+02 |   1.00%|  32.90%
 27.2s|   900 |   145 | 55830 |  48.8 |   374M |  30 | 465 |1219 | 511 | 139 |  1 | 707 |1463 | 1.696609e+02 | 1.680000e+02 |   0.99%|  34.79%
 29.2s|  1000 |   165 | 60947 |  49.1 |   373M |  30 | 465 |1251 | 511 | 164 |  0 | 739 |1487 | 1.696345e+02 | 1.680000e+02 |   0.97%|  37.81%
 31.1s|  1100 |   179 | 65329 |  48.6 |   373M |  30 | 465 |1281 | 516 | 185 |  0 | 769 |1520 | 1.696000e+02 | 1.680000e+02 |   0.95%|  39.65%
 32.6s|  1200 |   185 | 68509 |  47.2 |   373M |  30 | 465 |1300 | 513 | 197 |  0 | 788 |1538 | 1.695801e+02 | 1.680000e+02 |   0.94%|  40.42%
 34.0s|  1300 |   203 | 73352 |  47.3 |   373M |  30 | 465 |1316 | 514 | 210 |  1 | 804 |1555 | 1.695670e+02 | 1.680000e+02 |   0.93%|  41.43%
 34.9s|  1400 |   207 | 76682 |  46.3 |   373M |  30 | 465 |1339 | 514 | 218 |  0 | 827 |1576 | 1.695340e+02 | 1.680000e+02 |   0.91%|  42.91%
 36.7s|  1500 |   223 | 80618 |  45.8 |   373M |  30 | 465 |1375 | 513 | 239 |  0 | 863 |1613 | 1.695230e+02 | 1.680000e+02 |   0.91%|  43.90%
 38.0s|  1600 |   225 | 84487 |  45.4 |   373M |  30 | 465 |1400 | 514 | 255 |  1 | 888 |1631 | 1.695213e+02 | 1.680000e+02 |   0.91%|  44.88%
 39.0s|  1700 |   219 | 87867 |  44.7 |   373M |  30 | 465 |1416 | 514 | 266 |  0 | 904 |1646 | 1.694983e+02 | 1.680000e+02 |   0.89%|  46.16%
 time | node  | left  |LP iter|LP it/n|mem/heur|mdpt |vars |cons |rows |cuts |sepa|confs|strbr|  dualbound   | primalbound  |  gap   | compl. 
 39.6s|  1800 |   221 | 91035 |  44.0 |   373M |  30 | 465 |1458 | 513 | 266 |  0 | 946 |1683 | 1.694585e+02 | 1.680000e+02 |   0.87%|  47.76%
 40.3s|  1900 |   217 | 93845 |  43.1 |   373M |  30 | 465 |1475 | 513 | 271 |  2 | 963 |1703 | 1.694541e+02 | 1.680000e+02 |   0.87%|  47.90%
 41.4s|  2000 |   215 | 97301 |  42.7 |   373M |  30 | 465 |1497 | 514 | 281 |  3 | 985 |1733 | 1.694419e+02 | 1.680000e+02 |   0.86%|  48.76%
 43.5s|  2100 |   221 |101370 |  42.6 |   373M |  30 | 465 |1524 | 514 | 311 |  0 |1012 |1759 | 1.694208e+02 | 1.680000e+02 |   0.85%|  50.72%
 44.5s|  2200 |   207 |104667 |  42.2 |   373M |  30 | 465 |1555 | 513 | 320 |  1 |1045 |1789 | 1.693960e+02 | 1.680000e+02 |   0.83%|  52.63%
 45.0s|  2300 |   197 |107421 |  41.5 |   373M |  30 | 465 |1568 | 514 | 323 |  0 |1059 |1804 | 1.693540e+02 | 1.680000e+02 |   0.81%|  53.98%
 45.7s|  2400 |   183 |111089 |  41.3 |   373M |  30 | 465 |1580 | 512 | 323 |  2 |1072 |1816 | 1.693505e+02 | 1.680000e+02 |   0.80%|  54.37%
 46.4s|  2500 |   169 |113464 |  40.6 |   373M |  30 | 465 |1593 | 513 | 326 |  1 |1085 |1827 | 1.693283e+02 | 1.680000e+02 |   0.79%|  55.65%
 47.5s|  2600 |   157 |116252 |  40.1 |   373M |  30 | 465 |1607 | 515 | 344 |  1 |1100 |1841 | 1.693008e+02 | 1.680000e+02 |   0.77%|  56.84%
 48.7s|  2700 |   125 |118666 |  39.6 |   373M |  30 | 465 |1607 | 515 | 358 |  0 |1102 |1844 | 1.692865e+02 | 1.680000e+02 |   0.77%|  58.11%
 49.2s|  2800 |    79 |120449 |  38.8 |   373M |  30 | 465 |1610 | 513 | 358 |  0 |1105 |1848 | 1.692515e+02 | 1.680000e+02 |   0.74%|  60.19%
 49.9s|  2900 |    33 |122300 |  38.1 |   373M |  30 | 465 |1615 | 515 | 358 |  0 |1111 |1854 | 1.692058e+02 | 1.680000e+02 |   0.72%|  61.86%

SCIP Status        : problem is solved [optimal solution found]
Solving Time (sec) : 50.68
Solving Nodes      : 2957 (total of 2959 nodes in 3 runs)
Primal Bound       : +1.68000000000000e+02 (669 solutions)
Dual Bound         : +1.68000000000000e+02
Gap                : 0.00 %
Solve Status: optimal
Solve Time: 50.72 seconds
